p edge 40 120
e 1 9
e 1 26
e 1 27
e 2 1
e 2 21
e 2 26
e 3 2
e 3 17
e 3 33
e 4 5
e 4 19
e 4 25
e 5 3
e 5 20
e 5 34
e 6 2
e 6 16
e 6 25
e 7 2
e 7 16
e 7 36
e 8 19
e 8 23
e 8 39
e 9 6
e 9 8
e 9 34
e 10 18
e 10 29
e 10 39
e 11 15
e 11 15
e 11 17
e 12 2
e 12 7
e 12 15
e 13 11
e 13 36
e 13 39
e 14 15
e 14 29
e 14 29
e 15 8
e 15 9
e 15 33
e 16 2
e 16 28
e 16 33
e 17 3
e 17 3
e 17 40
e 18 25
e 18 30
e 18 38
e 19 9
e 19 18
e 19 37
e 20 6
e 20 25
e 20 27
e 21 2
e 21 32
e 21 36
e 22 8
e 22 12
e 22 38
e 23 3
e 23 14
e 23 29
e 24 3
e 24 4
e 24 31
e 25 11
e 25 12
e 25 16
e 26 3
e 26 12
e 26 36
e 27 14
e 27 37
e 27 38
e 28 7
e 28 25
e 28 27
e 29 21
e 29 32
e 29 34
e 30 27
e 30 27
e 30 38
e 31 29
e 31 34
e 31 39
e 32 4
e 32 26
e 32 37
e 33 6
e 33 19
e 33 27
e 34 9
e 34 19
e 34 30
e 35 22
e 35 28
e 35 34
e 36 17
e 36 21
e 36 35
e 37 3
e 37 8
e 37 24
e 38 21
e 38 22
e 38 24
e 39 4
e 39 12
e 39 15
e 40 30
e 40 33
e 40 33
